NAME: tsp10_13
COMMENT: 10-tsp problem (Padberg/Rinaldi)
TYPE: TSP
DIMENSION: 10
EDGE_WEIGHT_TYPE : EUC_2D
NODE_COORD_SECTION
1 31 26
2 22 4
3 39 16
4 22 4
5 18 34
6 27 18
7 15 25
8 18 18
9 28 23
10 8 21
